nNurses = 152;
nHours = 35;
minHours = 4;
maxHours = 13;
maxConsec = 13;
maxPresence = 8;
demand = [30, 26, 24, 23, 27, 26, 22, 27, 22, 24, 29, 28, 25, 21, 26, 29, 31, 34, 32, 33, 37, 40, 36, 37, 33, 31, 27, 26, 30, 33, 30, 29, 25, 30, 27];
